000 000 000 000 000 000 000 000 -99 -99 -99 -99 -99 000 000 -99 -99 -99 000 000 000 000 -99 000 000 000 000 000 000 000 000
000 000 000 000 000 000 000 000 -99 -99 -99 -99 -99 -99 000 000 -99 -99 -99 000 000 000 -99 -99 000 000 000 000 000 000 000
000 000 000 000 000 000 000 -99 000 000 -99 -99 -99 -99 000 000 -99 -99 -99 000 000 -99 -99 -99 000 000 000 000 000 -99 000
000 000 000 000 000 000 000 -99 000 000 000 -99 000 -99 000 000 -99 -99 -99 000 000 -99 -99 000 000 000 000 000 000 -99 -99
000 -99 000 000 000 000 000 000 000 000 000 -99 000 000 000 000 000 -99 -99 -99 000 -99 000 000 000 000 000 000 000 -99 -99
000 000 000 000 000 000 000 000 000 000 000 -99 000 000 000 000 -99 -99 -99 -99 000 000 000 000 000 000 000 000 000 -99 -99
000 000 000 000 000 -99 000 000 000 000 000 -99 -99 000 -99 -99 000 000 -99 -99 000 000 000 000 000 000 -99 -99 -99 -99 -99
000 000 000 000 000 -99 -99 000 000 000 000 -99 -99 -99 -99 -99 000 000 000 -99 -99 000 000 000 000 000 -99 -99 -99 -99 -99
000 000 000 000 000 -99 -99 -99 000 000 000 000 -99 -99 -99 -99 000 000 000 -99 000 000 000 000 000 000 000 000 -99 -99 -99
000 000 000 000 000 -99 -99 -99 -99 000 000 000 -99 -99 -99 -99 -99 000 000 -99 000 000 000 -99 -99 000 000 000 000 -99 -99
000 000 000 000 000 000 000 000 000 000 000 000 000 000 -99 -99 -99 000 000 -99 000 000 000 -99 000 -99 000 000 000 000 -99
000 000 000 000 000 000 000 000 000 000 000 000 000 000 -99 -99 -99 -99 000 000 000 000 -99 000 000 -99 000 000 000 000 -99
000 000 000 000 000 000 000 000 -99 000 000 000 000 000 -99 -99 -99 000 000 000 -99 -99 -99 -99 000 000 000 000 000 000 000
-99 -99 000 000 000 000 000 000 000 -99 -99 000 000 000 -99 -99 -99 000 000 000 000 -99 -99 000 000 000 -99 000 000 000 000
-99 -99 -99 -99 000 000 000 000 -99 -99 -99 -99 000 000 -99 -99 -99 000 000 000 -99 -99 -99 000 000 000 -99 000 000 000 000
000 -99 -99 -99 000 000 000 000 000 -99 -99 -99 -99 000 -99 -99 -99 000 000 000 -99 000 -99 -99 000 000 -99 -99 000 000 000
000 -99 -99 -99 000 000 000 000 000 -99 -99 -99 -99 -99 -99 -99 -99 000 000 -99 -99 -99 000 -99 -99 000 000 -99 000 000 000
000 000 000 -99 -99 -99 000 000 000 000 -99 -99 -99 -99 -99 -99 000 000 -99 -99 -99 -99 000 -99 -99 000 000 -99 -99 000 000
000 000 000 000 -99 -99 000 000 000 000 -99 -99 -99 000 000 -99 000 000 -99 -99 -99 000 000 -99 000 000 -99 -99 -99 000 000
000 000 000 000 -99 -99 -99 000 000 000 -99 -99 -99 000 000 -99 000 000 -99 000 -99 -99 000 -99 -99 000 -99 -99 -99 -99 000
000 000 000 000 000 000 000 000 000 000 -99 -99 -99 -99 -99 -99 000 000 000 000 000 000 000 -99 -99 -99 -99 -99 -99 -99 -99
000 000 000 000 000 000 000 000 000 000 -99 -99 -99 -99 -99 -99 000 000 000 000 000 000 000 -99 -99 -99 -99 -99 -99 -99 -99
000 000 000 000 000 000 000 000 000 000 -99 -99 -99 000 000 000 000 000 000 000 000 000 000 -99 -99 -99 -99 -99 -99 -99 -99
000 000 000 000 -99 000 000 000 000 000 000 -99 000 000 000 000 000 000 000 000 001 000 000 -99 -99 -99 -99 -99 -99 -99 -99
000 000 000 000 000 000 000 000 000 000 -99 -99 000 000 000 000 000 000 000 000 001 000 000 -99 -99 -99 -99 -99 -99 -99 -99
000 000 000 000 000 000 000 -99 -99 000 -99 -99 000 000 000 000 000 000 000 001 002 001 001 -99 -99 -99 -99 -99 -99 -99 000
000 000 000 000 000 000 000 000 000 000 000 -99 -99 -99 000 000 000 000 000 001 003 002 003 -99 -99 -99 -99 -99 -99 000 000
000 000 000 000 000 000 000 000 000 000 -99 -99 -99 -99 000 000 000 000 000 002 003 002 010 -99 -99 -99 -99 -99 001 000 000
-99 000 000 000 000 000 000 000 000 000 000 -99 -99 000 000 000 000 000 000 001 003 007 013 011 007 004 004 010 002 001 001
000 000 000 -99 000 000 000 000 000 000 000 -99 -99 000 000 000 000 000 000 000 002 007 017 010 008 005 007 012 007 003 004
000 000 000 000 000 000 000 000 000 000 -99 -99 -99 000 000 000 000 000 000 001 002 004 009 014 012 007 009 014 010 011 024
000 000 000 000 000 000 000 000 000 -99 -99 -99 -99 000 000 -99 000 001 001 001 002 003 008 012 019 012 009 017 029 017 051
000 000 000 000 000 000 000 000 000 -99 -99 -99 -99 -99 000 000 000 001 002 002 004 004 009 012 019 015 010 018 039 040 042
000 000 000 000 000 000 000 000 000 000 -99 -99 -99 -99 000 000 000 000 000 000 003 006 018 014 018 012 006 017 032 025 021
000 000 000 000 000 000 000 000 000 000 000 -99 000 -99 000 000 000 000 001 002 005 031 043 048 025 013 012 021 026 015 013
000 000 000 000 000 000 000 000 000 000 000 -99 000 000 000 000 000 000 001 001 004 030 042 041 018 008 016 020 025 012 014
000 000 -99 000 000 -99 -99 000 000 000 000 -99 000 000 000 000 000 000 001 001 004 013 032 031 020 008 014 018 021 025 035
000 -99 -99 -99 000 -99 -99 000 -99 000 -99 -99 000 000 000 000 000 000 000 000 002 005 030 012 007 008 024 023 013 039 022
000 -99 000 -99 000 000 -99 -99 -99 -99 -99 -99 -99 000 000 000 000 000 000 000 000 003 005 004 005 006 021 042 012 025 010
000 000 000 000 000 -99 -99 -99 -99 -99 -99 -99 000 000 000 000 000 000 000 000 000 000 001 002 004 008 013 013 003 015 004
000 000 000 000 000 -99 -99 -99 -99 -99 000 -99 000 000 000 000 000 -99 -99 -99 000 000 000 000 000 001 005 005 001 003 001
000 000 -99 000 -99 -99 000 000 -99 000 000 000 000 000 000 000 -99 -99 -99 -99 -99 -99 000 000 000 000 001 000 000 000 000
000 000 -99 -99 000 000 000 000 -99 000 000 000 000 000 000 000 -99 -99 -99 000 000 -99 000 000 000 000 001 000 000 000 000
000 -99 -99 -99 -99 000 000 000 -99 -99 000 000 000 000 000 000 -99 -99 000 000 000 -99 -99 -99 000 000 -99 000 000 000 -99
000 -99 -99 -99 -99 000 000 -99 -99 -99 -99 000 000 000 000 000 000 -99 000 000 000 -99 -99 -99 -99 -99 -99 000 -99 -99 -99
000 -99 -99 -99 -99 000 -99 -99 -99 -99 -99 000 000 000 000 -99 000 -99 000 000 -99 -99 -99 -99 -99 -99 -99 000 -99 -99 -99
000 -99 -99 -99 -99 -99 -99 -99 -99 -99 -99 000 000 000 000 -99 -99 -99 000 000 -99 -99 000 -99 -99 -99 000 -99 -99 -99 -99
-99 -99 -99 -99 -99 -99 -99 -99 000 000 000 000 000 000 000 -99 -99 -99 000 000 000 000 000 000 -99 -99 -99 -99 -99 -99 -99
-99 -99 -99 -99 -99 -99 -99 -99 000 000 -99 000 000 000 -99 -99 -99 000 000 000 -99 -99 000 -99 -99 -99 -99 -99 -99 -99 -99
-99 -99 -99 -99 -99 -99 -99 -99 000 000 -99 000 000 000 -99 -99 -99 000 000 -99 000 000 -99 -99 -99 -99 -99 000 -99 -99 -99
-99 -99 -99 -99 -99 -99 -99 -99 -99 -99 -99 -99 000 -99 -99 -99 -99 -99 -99 -99 000 000 -99 -99 -99 -99 -99 -99 -99 -99 -99
-99 -99 -99 -99 -99 -99 -99 -99 -99 -99 -99 -99 000 000 -99 -99 -99 -99 -99 -99 -99 -99 -99 -99 -99 -99 -99 -99 -99 -99 -99
000 -99 -99 -99 -99 -99 -99 -99 -99 -99 -99 -99 -99 -99 -99 -99 -99 -99 -99 -99 -99 -99 -99 -99 -99 -99 -99 -99 -99 -99 -99
-99 -99 -99 -99 -99 -99 -99 -99 -99 -99 -99 -99 -99 -99 -99 -99 000 -99 -99 -99 -99 -99 -99 -99 -99 -99 -99 -99 -99 -99 -99
-99 -99 -99 -99 -99 000 -99 -99 -99 -99 -99 -99 -99 -99 -99 000 000 -99 -99 -99 -99 -99 -99 -99 -99 -99 -99 -99 -99 -99 -99
